SPARKNaCl/why3-cvc5/sparknacl.adb_74_21_range_check3_1.smt2
;; produced by cvc5.drv ;;
(set-logic ALL)
(set-info :smt-lib-version 2.6)
;;; generated by SMT-LIB2 driver
;;; SMT-LIB2 driver: bit-vectors, common part
;;; SMT-LIB2: integer arithmetic
(define-fun __cdiv ((x Int) (y Int)) Int (ite (>= x 0) (div x y) (- (div (- x) y))))
(define-fun __cmod ((x Int) (y Int)) Int (ite (>= x 0) (mod x y) (- (mod (- x) y))))
;; "mod"
(define-fun mod1 ((x Int) (y Int)) Int
  (ite (<= 0 y) (mod x y) (- (mod (- x) y))))

;; "pow2"
(declare-fun pow2 (Int) Int)

(declare-const two_power_size_minus_one Int)

;; "two_power_size_minus_one_val"
(assert (= two_power_size_minus_one (pow2 (- 16 1))))

;; "min"
(define-fun min ((x Int) (y Int)) Int
  (ite (<= x y) x y))

;; "max"
(define-fun max ((x Int) (y Int)) Int
  (ite (<= x y) y x))

;; "Min_r"
(assert (forall ((x Int) (y Int)) (=> (<= y x) (= (min x y) y))))

;; "Max_l"
(assert (forall ((x Int) (y Int)) (=> (<= y x) (= (max x y) x))))

;; "Min_comm"
(assert (forall ((x Int) (y Int)) (= (min x y) (min y x))))

;; "Max_comm"
(assert (forall ((x Int) (y Int)) (= (max x y) (max y x))))

;; "Min_assoc"
(assert
  (forall ((x Int) (y Int) (z Int)) (= (min (min x y) z) (min x (min y z)))))

;; "Max_assoc"
(assert
  (forall ((x Int) (y Int) (z Int)) (= (max (max x y) z) (max x (max y z)))))

;; "power"
(declare-fun power (Int
  Int) Int)

;; "Power_0"
(assert (forall ((x Int)) (= (power x 0) 1)))

;; "Power_s"
(assert
  (forall ((x Int) (n Int))
    (=> (<= 0 n) (= (power x (+ n 1)) (* x (power x n))))))

;; "Power_s_alt"
(assert
  (forall ((x Int) (n Int))
    (=> (< 0 n) (= (power x n) (* x (power x (- n 1)))))))

;; "Power_1"
(assert (forall ((x Int)) (= (power x 1) x)))

;; "Power_sum"
(assert
  (forall ((x Int) (n Int) (m Int))
    (=>
      (<= 0 n)
      (=> (<= 0 m) (= (power x (+ n m)) (* (power x n) (power x m)))))))

;; "Power_mult"
(assert
  (forall ((x Int) (n Int) (m Int))
    (=> (<= 0 n) (=> (<= 0 m) (= (power x (* n m)) (power (power x n) m))))))

;; "Power_comm1"
(assert
  (forall ((x Int) (y Int))
    (=>
      (= (* x y) (* y x))
      (forall ((n Int))
        (=> (<= 0 n) (= (* (power x n) y) (* y (power x n))))))))

;; "Power_comm2"
(assert
  (forall ((x Int) (y Int))
    (=>
      (= (* x y) (* y x))
      (forall ((n Int))
        (=> (<= 0 n) (= (power (* x y) n) (* (power x n) (power y n))))))))

;; "Power_non_neg"
(assert
  (forall ((x Int) (y Int)) (=> (and (<= 0 x) (<= 0 y)) (<= 0 (power x y)))))

;; "Power_pos"
(assert
  (forall ((x Int) (y Int)) (=> (and (< 0 x) (<= 0 y)) (< 0 (power x y)))))

;; "Power_monotonic"
(assert
  (forall ((x Int) (n Int) (m Int))
    (=> (and (< 0 x) (and (<= 0 n) (<= n m))) (<= (power x n) (power x m)))))

;; "shift_right_arithmetic"
(define-fun shift_right_arithmetic ((x Int) (n Int) (us Int)) Int
  (ite (< x 0) (- (__cdiv (+ x 1) (power 2 n)) 1) (__cdiv x (power 2 n))))

;; "in_range"
(define-fun in_range ((x Int)) Bool
  (and (<= (- 2147483648) x) (<= x 2147483647)))

;; "asr32_16"
(declare-fun asr32_16 (Int) Int)

;; "asr32_16__function_guard"
(declare-fun asr32_16__function_guard (Int
  Int) Bool)

(declare-sort gf16_normal_limb 0)

;; "to_rep"
(declare-fun to_rep (gf16_normal_limb) (_ BitVec 16))

;; "of_rep"
(declare-fun of_rep ((_ BitVec 16)) gf16_normal_limb)

;; "inversion_axiom"
(assert
  (forall ((x gf16_normal_limb))
    (! (= (of_rep (to_rep x)) x) :pattern ((to_rep x)) )))

;; "range_axiom"
(assert true)

;; "coerce_axiom"
(assert
  (forall ((x (_ BitVec 16)))
    (! (= (to_rep (of_rep x)) x) :pattern ((to_rep (of_rep x))) )))

(declare-sort map1 0)

;; "has_bounds"
(declare-fun has_bounds (map1
  Int
  Int) Bool)

;; "get"
(declare-fun get (map1
  Int) gf16_normal_limb)

(declare-const left map1)

(declare-const right map1)

(declare-sort gf32_any_limb 0)

;; "gf32_any_limb'int"
(declare-fun gf32_any_limbqtint (gf32_any_limb) Int)

;; "gf32_any_limb'axiom"
(assert
  (forall ((i gf32_any_limb))
    (and
      (<= (- 65536) (gf32_any_limbqtint i))
      (<= (gf32_any_limbqtint i) 132051011))))

;; "in_range"
(define-fun in_range1 ((x Int)) Bool
  (and (<= (- 65536) x) (<= x 132051011)))

;; "to_rep"
(define-fun to_rep1 ((x gf32_any_limb)) Int
  (gf32_any_limbqtint x))

;; "of_rep"
(declare-fun of_rep1 (Int) gf32_any_limb)

;; "inversion_axiom"
(assert
  (forall ((x gf32_any_limb))
    (! (= (of_rep1 (to_rep1 x)) x) :pattern ((to_rep1 x)) )))

;; "range_axiom"
(assert
  (forall ((x gf32_any_limb))
    (! (in_range1 (to_rep1 x)) :pattern ((to_rep1 x)) )))

;; "coerce_axiom"
(assert
  (forall ((x Int))
    (! (=> (in_range1 x) (= (to_rep1 (of_rep1 x)) x)) :pattern ((to_rep1
                                                                  (of_rep1 x))) )))

(declare-datatypes ((gf32_any_limb__init_wrapper 0))
  (((gf32_any_limb__init_wrapperqtmk
    (rec__value gf32_any_limb)(us_attr__init Bool)))))

(declare-sort map2 0)

;; "has_bounds"
(declare-fun has_bounds1 (map2
  Int
  Int) Bool)

;; "get"
(declare-fun get1 (map2
  Int) gf32_any_limb__init_wrapper)

;; "set"
(declare-fun set (map2
  Int
  gf32_any_limb__init_wrapper) map2)

;; "set_eq"
(assert
  (forall ((a map2) (i Int) (v gf32_any_limb__init_wrapper))
    (! (= (get1 (set a i v) i) v) :pattern ((set a i v)) )))

;; "set_neq"
(assert
  (forall ((a map2) (i Int) (v gf32_any_limb__init_wrapper))
    (! (forall ((j Int))
         (! (=> (not (= i j)) (= (get1 (set a i v) j) (get1 a j))) :pattern (
         (get1
           a
           j)) :pattern ((get1 (set a i v) j)) )) :pattern ((set a i v)) )))

;; "set_has_bounds"
(assert
  (forall ((a map2) (i Int) (f Int) (l Int) (v gf32_any_limb__init_wrapper))
    (! (=>
         (and (<= f i) (<= i l))
         (=> (has_bounds1 a f l) (has_bounds1 (set a i v) f l))) :pattern (
    (has_bounds1
      (set a i v)
      f
      l)) )))

;; "in_range"
(define-fun in_range2 ((x Int)) Bool
  (and (<= 0 x) (<= x 65535)))

;; "in_range"
(define-fun in_range3 ((x Int)) Bool
  (and (<= (- 65536) x) (<= x 65535)))

;; "in_range"
(define-fun in_range4 ((x Int)) Bool
  (and (<= (- 1) x) (<= x 0)))

;; Goal "def'vc"
;; File "sparknacl.ads", line 454, characters 0-0
(assert
  (not
  (forall ((t Int) (carry Int) (r map2))
    (=>
      (has_bounds left 0 15)
      (=>
        (has_bounds right 0 15)
        (=>
          (in_range3 t)
          (=>
            (in_range4 carry)
            (=>
              (has_bounds1 r 0 15)
              (forall ((carry1 Int))
                (=>
                  (= carry1 0)
                  (forall ((i Int))
                    (=>
                      (= i 0)
                      (=>
                        (= (and (ite (<= 0 i) true false) (ite (<= i 15)
                                                            true
                                                            false)) true)
                        (forall ((o (_ BitVec 16)))
                          (=>
                            (= (to_rep (get right i)) o)
                            (forall ((o1 (_ BitVec 16)))
                              (=>
                                (= (to_rep (get left i)) o1)
                                (forall ((t1 Int))
                                  (=>
                                    (= t1 (+ (- (bv2nat o1) (bv2nat o)) carry1))
                                    (forall ((o2 gf32_any_limb))
                                      (=>
                                        (= (to_rep1 o2) (mod1 t1 65536))
                                        (forall ((r1 map2))
                                          (=>
                                            (= r1 (set
                                                    r
                                                    i
                                                    (gf32_any_limb__init_wrapperqtmk
                                                      o2
                                                      true)))
                                            (let ((o3 (asr32_16 t1)))
                                              (=>
                                                (and
                                                  (asr32_16__function_guard
                                                    o3
                                                    t1)
                                                  (and
                                                    (in_range o3)
                                                    (and
                                                      (= o3 (shift_right_arithmetic
                                                              t1
                                                              16
                                                              32))
                                                      (ite (<= 0 t1)
                                                        (= o3 (__cdiv t1 65536))
                                                        (= o3 (- (__cdiv (+ t1 1) 65536) 1))))))
                                                (=>
                                                  (in_range4 o3)
                                                  (forall ((carry2 Int))
                                                    (=>
                                                      (= carry2 o3)
                                                      (forall ((t2 Int) (carry3 Int) (r2 map2) (i1 Int))
                                                        (=>
                                                          (and
                                                            (forall ((j Int))
                                                              (=>
                                                                (and
                                                                  (<= 0 j)
                                                                  (<= j i1))
                                                                (= (us_attr__init
                                                                    (get1
                                                                    r2
                                                                    j)) true)))
                                                            (forall ((j Int))
                                                              (=>
                                                                (and
                                                                  (<= 0 j)
                                                                  (<= j i1))
                                                                (in_range2
                                                                  (to_rep1
                                                                    (rec__value
                                                                    (get1
                                                                    r2
                                                                    j)))))))
                                                          (=>
                                                            (= (and (ite 
                                                                    (and
                                                                    (and
                                                                    (and
                                                                    (in_range3
                                                                    t2)
                                                                    (in_range4
                                                                    carry3))
                                                                    (has_bounds1
                                                                    r2
                                                                    0
                                                                    15))
                                                                    (forall 
                                                                    ((temp___1606 Int))
                                                                    (=>
                                                                    (and
                                                                    (<= 0 temp___1606)
                                                                    (<= temp___1606 15))
                                                                    (=>
                                                                    (or
                                                                    (< 15 temp___1606)
                                                                    (or
                                                                    (< temp___1606 0)
                                                                    (< i1 temp___1606)))
                                                                    (= 
                                                                    (get1
                                                                    r2
                                                                    temp___1606) 
                                                                    (get1
                                                                    r
                                                                    temp___1606))))))
                                                                    true
                                                                    false) 
                                                            (ite (and
                                                                   (<= 0 i1)
                                                                   (<= i1 15))
                                                              true
                                                              false)) true)
                                                            (=>
                                                              (not (= i1 15))
                                                              (forall 
                                                                ((i2 Int))
                                                                (=>
                                                                  (= i2 (+ i1 1))
                                                                  (forall 
                                                                    ((o4 (_ BitVec 16)))
                                                                    (=>
                                                                    (= 
                                                                    (to_rep
                                                                    (get
                                                                    right
                                                                    i2)) o4)
                                                                    (forall 
                                                                    ((o5 (_ BitVec 16)))
                                                                    (=>
                                                                    (= 
                                                                    (to_rep
                                                                    (get
                                                                    left
                                                                    i2)) o5)
                                                                    (forall 
                                                                    ((t3 Int))
                                                                    (=>
                                                                    (= t3 (+ (- (bv2nat o5) (bv2nat o4)) carry3))
                                                                    (forall 
                                                                    ((o6 gf32_any_limb))
                                                                    (=>
                                                                    (= 
                                                                    (to_rep1
                                                                    o6) 
                                                                    (mod1
                                                                    t3
                                                                    65536))
                                                                    (forall 
                                                                    ((r3 map2))
                                                                    (=>
                                                                    (= r3 
                                                                    (set
                                                                    r2
                                                                    i2
                                                                    (gf32_any_limb__init_wrapperqtmk
                                                                    o6
                                                                    true)))
                                                                    (let ((o7 
                                                                    (asr32_16
                                                                    t3)))
                                                                    (=>
                                                                    (and
                                                                    (asr32_16__function_guard
                                                                    o7
                                                                    t3)
                                                                    (and
                                                                    (in_range
                                                                    o7)
                                                                    (and
                                                                    (= o7 
                                                                    (shift_right_arithmetic
                                                                    t3
                                                                    16
                                                                    32))
                                                                    (ite (<= 0 t3)
                                                                    (= o7 (__cdiv t3 65536))
                                                                    (= o7 (- (__cdiv (+ t3 1) 65536) 1))))))
                                                                    (=>
                                                                    (in_range4
                                                                    o7)
                                                                    (=>
                                                                    (<= 0 i2)
                                                                    (<= 0 0)))))))))))))))))))))))))))))))))))))))))))))))))

(check-sat)
